p tw 450 33750 1 
0 2 
0 3 
0 4 
0 5 
0 6 
0 7 
0 8 
0 9 
0 10 
0 11 
0 12 
0 13 
0 14 
0 15 
0 16 
0 17 
0 18 
0 19 
0 20 
0 21 
0 22 
0 23 
0 24 
0 25 
0 26 
0 27 
0 28 
0 29 
0 30 
0 31 
0 32 
0 33 
0 34 
0 35 
0 36 
0 37 
0 38 
0 39 
0 40 
0 41 
0 42 
0 43 
0 44 
0 45 
0 46 
0 47 
0 48 
0 49 
0 50 
0 51 
0 52 
0 53 
0 54 
0 55 
0 56 
0 57 
0 58 
0 59 
0 60 
0 61 
0 62 
0 63 
0 64 
0 65 
0 66 
0 67 
0 68 
0 69 
0 70 
0 71 
0 72 
0 73 
0 74 
0 75 
0 76 
0 77 
0 78 
0 79 
0 80 
0 81 
0 82 
0 83 
0 84 
0 85 
0 86 
0 87 
0 88 
0 89 
0 90 
0 91 
0 92 
0 93 
0 94 
0 95 
0 96 
0 97 
0 98 
0 99 
0 100 
0 101 
0 102 
0 103 
0 104 
0 105 
0 106 
0 107 
0 108 
0 109 
0 110 
0 111 
0 112 
0 113 
0 114 
0 115 
0 116 
0 117 
0 118 
0 119 
0 120 
0 121 
0 122 
0 123 
0 124 
0 125 
0 126 
0 127 
0 128 
0 129 
0 130 
0 131 
0 132 
0 133 
0 134 
0 135 
0 136 
0 137 
0 138 
0 139 
0 140 
0 141 
0 142 
0 143 
0 144 
0 145 
0 146 
0 147 
0 148 
0 149 
0 150 
0 151 
0 152 
0 153 
0 154 
0 155 
0 156 
0 157 
0 158 
0 159 
0 160 
0 161 
0 162 
0 163 
0 164 
0 165 
0 166 
0 167 
0 168 
0 169 
0 170 
0 171 
0 172 
0 173 
0 174 
0 175 
0 176 
0 177 
0 178 
0 179 
0 180 
0 181 
0 182 
0 183 
0 184 
0 185 
0 186 
0 187 
0 188 
0 189 
0 190 
0 191 
0 192 
0 193 
0 194 
0 195 
0 196 
0 197 
0 198 
0 199 
0 200 
0 201 
0 202 
0 203 
0 204 
0 205 
0 206 
0 207 
0 208 
0 209 
0 210 
0 211 
0 212 
0 213 
0 214 
0 215 
0 216 
0 217 
0 218 
0 219 
0 220 
0 221 
0 222 
0 223 
0 224 
0 225 
1 226 
1 227 
1 228 
1 229 
1 230 
1 231 
1 232 
1 233 
1 234 
1 235 
1 236 
1 237 
1 238 
1 239 
1 240 
1 241 
1 242 
1 243 
1 244 
1 245 
1 246 
1 247 
1 248 
1 249 
1 250 
1 251 
1 252 
1 253 
1 254 
1 255 
1 256 
1 257 
1 258 
1 259 
1 260 
1 261 
1 262 
1 263 
1 264 
1 265 
1 266 
1 267 
1 268 
1 269 
1 270 
1 271 
1 272 
1 273 
1 274 
1 275 
1 276 
1 277 
1 278 
1 279 
1 280 
1 281 
1 282 
1 283 
1 284 
1 285 
1 286 
1 287 
1 288 
1 289 
1 290 
1 291 
1 292 
1 293 
1 294 
1 295 
1 296 
1 297 
1 298 
1 299 
1 300 
1 301 
1 302 
1 303 
1 304 
1 305 
1 306 
1 307 
1 308 
1 309 
1 310 
1 311 
1 312 
1 313 
1 314 
1 315 
1 316 
1 317 
1 318 
1 319 
1 320 
1 321 
1 322 
1 323 
1 324 
1 325 
1 326 
1 327 
1 328 
1 329 
1 330 
1 331 
1 332 
1 333 
1 334 
1 335 
1 336 
1 337 
1 338 
1 339 
1 340 
1 341 
1 342 
1 343 
1 344 
1 345 
1 346 
1 347 
1 348 
1 349 
1 350 
1 351 
1 352 
1 353 
1 354 
1 355 
1 356 
1 357 
1 358 
1 359 
1 360 
1 361 
1 362 
1 363 
1 364 
1 365 
1 366 
1 367 
1 368 
1 369 
1 370 
1 371 
1 372 
1 373 
1 374 
1 375 
1 376 
1 377 
1 378 
1 379 
1 380 
1 381 
1 382 
1 383 
1 384 
1 385 
1 386 
1 387 
1 388 
1 389 
1 390 
1 391 
1 392 
1 393 
1 394 
1 395 
1 396 
1 397 
1 398 
1 399 
1 400 
1 401 
1 402 
1 403 
1 404 
1 405 
1 406 
1 407 
1 408 
1 409 
1 410 
1 411 
1 412 
1 413 
1 414 
1 415 
1 416 
1 417 
1 418 
1 419 
1 420 
1 421 
1 422 
1 423 
1 424 
1 425 
1 426 
1 427 
1 428 
1 429 
1 430 
1 431 
1 432 
1 433 
1 434 
1 435 
1 436 
1 437 
1 438 
1 439 
1 440 
1 441 
1 442 
1 443 
1 444 
1 445 
1 446 
1 447 
1 448 
1 449 
1 450 
1 234 
1 237 
1 257 
1 284 
1 314 
1 322 
1 329 
1 336 
1 378 
1 384 
1 393 
1 406 
1 409 
1 413 
1 432 
2 242 
2 271 
2 290 
2 296 
2 299 
2 324 
2 337 
2 341 
2 348 
2 350 
2 351 
2 353 
2 368 
2 385 
2 395 
3 231 
3 267 
3 268 
3 288 
3 310 
3 316 
3 321 
3 331 
3 332 
3 344 
3 371 
3 401 
3 430 
3 446 
3 449 
4 285 
4 298 
4 301 
4 307 
4 317 
4 333 
4 340 
4 346 
4 364 
4 391 
4 404 
4 412 
4 417 
4 429 
4 433 
5 245 
5 247 
5 248 
5 254 
5 264 
5 278 
5 308 
5 326 
5 334 
5 365 
5 380 
5 394 
5 396 
5 418 
5 438 
6 232 
6 250 
6 280 
6 319 
6 342 
6 343 
6 369 
6 379 
6 390 
6 403 
6 423 
6 425 
6 426 
6 431 
6 448 
7 234 
7 237 
7 257 
7 284 
7 314 
7 322 
7 329 
7 336 
7 378 
7 384 
7 393 
7 406 
7 409 
7 413 
7 432 
8 291 
8 304 
8 307 
8 309 
8 317 
8 333 
8 340 
8 364 
8 404 
8 412 
8 417 
8 424 
8 427 
8 429 
8 441 
9 241 
9 246 
9 255 
9 293 
9 297 
9 318 
9 338 
9 356 
9 374 
9 400 
9 407 
9 421 
9 437 
9 444 
9 445 
10 232 
10 243 
10 250 
10 263 
10 265 
10 311 
10 342 
10 347 
10 367 
10 369 
10 379 
10 403 
10 423 
10 426 
10 431 
11 228 
11 231 
11 267 
11 268 
11 288 
11 295 
11 310 
11 330 
11 332 
11 345 
11 360 
11 370 
11 376 
11 430 
11 446 
12 240 
12 242 
12 253 
12 294 
12 296 
12 299 
12 306 
12 337 
12 341 
12 350 
12 353 
12 357 
12 368 
12 372 
12 385 
13 238 
13 251 
13 291 
13 305 
13 309 
13 340 
13 364 
13 382 
13 391 
13 397 
13 404 
13 417 
13 424 
13 433 
13 441 
14 238 
14 251 
14 285 
14 298 
14 301 
14 305 
14 317 
14 340 
14 346 
14 397 
14 404 
14 417 
14 427 
14 428 
14 433 
15 226 
15 230 
15 236 
15 260 
15 268 
15 288 
15 310 
15 316 
15 331 
15 345 
15 370 
15 371 
15 375 
15 376 
15 401 
16 234 
16 237 
16 257 
16 284 
16 314 
16 322 
16 329 
16 336 
16 378 
16 384 
16 393 
16 406 
16 409 
16 413 
16 432 
17 227 
17 241 
17 261 
17 279 
17 282 
17 302 
17 318 
17 349 
17 381 
17 400 
17 407 
17 411 
17 421 
17 440 
17 445 
18 238 
18 251 
18 285 
18 286 
18 301 
18 304 
18 305 
18 340 
18 346 
18 364 
18 382 
18 404 
18 427 
18 429 
18 441 
19 240 
19 271 
19 281 
19 283 
19 299 
19 328 
19 337 
19 348 
19 351 
19 353 
19 357 
19 368 
19 372 
19 377 
19 420 
20 240 
20 276 
20 281 
20 283 
20 290 
20 296 
20 306 
20 337 
20 339 
20 341 
20 348 
20 351 
20 357 
20 389 
20 420 
21 253 
21 271 
21 283 
21 294 
21 299 
21 324 
21 341 
21 350 
21 357 
21 361 
21 368 
21 372 
21 377 
21 385 
21 389 
22 247 
22 254 
22 278 
22 303 
22 326 
22 334 
22 355 
22 359 
22 362 
22 380 
22 386 
22 394 
22 402 
22 418 
22 438 
23 227 
23 241 
23 244 
23 261 
23 282 
23 293 
23 297 
23 313 
23 349 
23 374 
23 387 
23 411 
23 440 
23 445 
23 447 
24 256 
24 258 
24 259 
24 266 
24 269 
24 270 
24 273 
24 274 
24 275 
24 327 
24 358 
24 435 
24 436 
24 439 
24 450 
25 232 
25 243 
25 289 
25 311 
25 312 
25 343 
25 367 
25 388 
25 390 
25 392 
25 398 
25 403 
25 419 
25 425 
25 431 
26 280 
26 289 
26 312 
26 319 
26 325 
26 343 
26 388 
26 390 
26 392 
26 398 
26 405 
26 419 
26 422 
26 425 
26 448 
27 232 
27 243 
27 250 
27 263 
27 265 
27 289 
27 311 
27 319 
27 342 
27 369 
27 379 
27 403 
27 425 
27 426 
27 431 
28 238 
28 291 
28 298 
28 301 
28 307 
28 309 
28 340 
28 364 
28 382 
28 391 
28 404 
28 412 
28 417 
28 429 
28 433 
29 243 
29 250 
29 263 
29 289 
29 312 
29 325 
29 342 
29 347 
29 367 
29 390 
29 392 
29 405 
29 422 
29 426 
29 448 
30 238 
30 251 
30 286 
30 291 
30 298 
30 301 
30 309 
30 317 
30 340 
30 364 
30 404 
30 412 
30 427 
30 429 
30 433 
31 233 
31 235 
31 262 
31 266 
31 269 
31 270 
31 273 
31 274 
31 277 
31 287 
31 358 
31 366 
31 416 
31 435 
31 436 
32 242 
32 271 
32 281 
32 290 
32 294 
32 299 
32 324 
32 328 
32 351 
32 361 
32 368 
32 377 
32 389 
32 395 
32 420 
33 244 
33 246 
33 255 
33 272 
33 282 
33 293 
33 297 
33 302 
33 313 
33 349 
33 352 
33 356 
33 400 
33 407 
33 444 
34 251 
34 285 
34 286 
34 304 
34 305 
34 317 
34 333 
34 346 
34 397 
34 414 
34 424 
34 427 
34 428 
34 441 
34 443 
35 243 
35 312 
35 319 
35 343 
35 379 
35 388 
35 390 
35 403 
35 419 
35 422 
35 423 
35 425 
35 426 
35 431 
35 448 
36 286 
36 291 
36 301 
36 304 
36 307 
36 309 
36 333 
36 382 
36 391 
36 412 
36 414 
36 428 
36 429 
36 441 
36 443 
37 241 
37 246 
37 293 
37 318 
37 338 
37 352 
37 356 
37 374 
37 381 
37 407 
37 421 
37 437 
37 440 
37 444 
37 447 
38 244 
38 255 
38 272 
38 282 
38 293 
38 313 
38 338 
38 356 
38 374 
38 381 
38 387 
38 411 
38 444 
38 445 
38 447 
39 283 
39 290 
39 306 
39 324 
39 328 
39 337 
39 339 
39 348 
39 350 
39 351 
39 353 
39 357 
39 368 
39 377 
39 420 
40 246 
40 255 
40 272 
40 279 
40 302 
40 318 
40 338 
40 352 
40 356 
40 381 
40 400 
40 407 
40 421 
40 437 
40 444 
41 240 
41 242 
41 253 
41 271 
41 296 
41 328 
41 339 
41 348 
41 350 
41 361 
41 368 
41 372 
41 389 
41 395 
41 420 
42 286 
42 291 
42 304 
42 307 
42 309 
42 333 
42 364 
42 382 
42 391 
42 412 
42 414 
42 424 
42 429 
42 441 
42 443 
43 238 
43 285 
43 298 
43 301 
43 305 
43 307 
43 317 
43 346 
43 364 
43 391 
43 397 
43 414 
43 417 
43 433 
43 443 
44 229 
44 233 
44 252 
44 259 
44 262 
44 266 
44 274 
44 275 
44 277 
44 327 
44 335 
44 354 
44 383 
44 408 
44 416 
45 234 
45 237 
45 257 
45 284 
45 314 
45 322 
45 329 
45 336 
45 378 
45 384 
45 393 
45 406 
45 409 
45 413 
45 432 
46 285 
46 298 
46 301 
46 305 
46 307 
46 333 
46 346 
46 382 
46 397 
46 404 
46 414 
46 417 
46 427 
46 428 
46 433 
47 253 
47 271 
47 276 
47 281 
47 283 
47 290 
47 294 
47 296 
47 299 
47 324 
47 341 
47 361 
47 385 
47 389 
47 395 
48 228 
48 230 
48 231 
48 236 
48 268 
48 295 
48 310 
48 321 
48 330 
48 344 
48 360 
48 370 
48 375 
48 399 
48 430 
49 285 
49 304 
49 305 
49 307 
49 333 
49 346 
49 382 
49 391 
49 397 
49 414 
49 417 
49 424 
49 428 
49 441 
49 443 
50 239 
50 245 
50 247 
50 248 
50 264 
50 300 
50 320 
50 326 
50 359 
50 362 
50 365 
50 380 
50 410 
50 418 
50 438 
51 227 
51 241 
51 246 
51 261 
51 279 
51 297 
51 302 
51 318 
51 349 
51 352 
51 400 
51 407 
51 421 
51 437 
51 440 
52 271 
52 281 
52 283 
52 290 
52 294 
52 324 
52 328 
52 339 
52 351 
52 353 
52 357 
52 361 
52 368 
52 377 
52 385 
53 226 
53 228 
53 230 
53 231 
53 236 
53 267 
53 268 
53 288 
53 310 
53 316 
53 330 
53 331 
53 344 
53 345 
53 370 
54 256 
54 259 
54 269 
54 273 
54 274 
54 275 
54 277 
54 287 
54 335 
54 358 
54 363 
54 383 
54 416 
54 435 
54 439 
55 261 
55 272 
55 282 
55 293 
55 297 
55 318 
55 338 
55 356 
55 374 
55 400 
55 407 
55 411 
55 421 
55 440 
55 445 
56 241 
56 244 
56 255 
56 261 
56 279 
56 297 
56 338 
56 356 
56 374 
56 387 
56 411 
56 421 
56 437 
56 445 
56 447 
57 238 
57 285 
57 286 
57 298 
57 301 
57 305 
57 307 
57 309 
57 382 
57 404 
57 414 
57 427 
57 428 
57 429 
57 433 
58 245 
58 248 
58 254 
58 264 
58 300 
58 308 
58 315 
58 320 
58 373 
58 396 
58 402 
58 410 
58 418 
58 434 
58 438 
59 235 
59 256 
59 258 
59 262 
59 273 
59 287 
59 335 
59 354 
59 363 
59 366 
59 408 
59 415 
59 435 
59 436 
59 450 
60 241 
60 246 
60 261 
60 282 
60 293 
60 313 
60 318 
60 349 
60 356 
60 374 
60 381 
60 387 
60 400 
60 440 
60 445 
61 234 
61 237 
61 257 
61 284 
61 314 
61 322 
61 329 
61 336 
61 378 
61 384 
61 393 
61 406 
61 409 
61 413 
61 432 
62 235 
62 256 
62 262 
62 266 
62 269 
62 273 
62 277 
62 327 
62 335 
62 358 
62 366 
62 415 
62 435 
62 436 
62 450 
63 232 
63 265 
63 280 
63 311 
63 319 
63 343 
63 369 
63 379 
63 388 
63 398 
63 403 
63 419 
63 423 
63 425 
63 431 
64 232 
64 250 
64 263 
64 265 
64 280 
64 289 
64 319 
64 325 
64 369 
64 388 
64 392 
64 398 
64 405 
64 425 
64 448 
65 249 
65 254 
65 278 
65 292 
65 303 
65 308 
65 315 
65 334 
65 355 
65 373 
65 386 
65 394 
65 396 
65 402 
65 434 
66 235 
66 256 
66 269 
66 273 
66 274 
66 277 
66 327 
66 335 
66 363 
66 366 
66 408 
66 435 
66 436 
66 439 
66 450 
67 229 
67 252 
67 256 
67 258 
67 259 
67 275 
67 327 
67 335 
67 354 
67 363 
67 383 
67 408 
67 415 
67 439 
67 450 
68 245 
68 247 
68 248 
68 249 
68 254 
68 264 
68 278 
68 292 
68 308 
68 373 
68 380 
68 394 
68 396 
68 402 
68 410 
69 253 
69 271 
69 276 
69 281 
69 283 
69 294 
69 296 
69 324 
69 337 
69 339 
69 341 
69 353 
69 357 
69 372 
69 420 
70 238 
70 285 
70 304 
70 307 
70 309 
70 364 
70 382 
70 397 
70 404 
70 412 
70 414 
70 417 
70 424 
70 427 
70 441 
71 229 
71 233 
71 259 
71 270 
71 274 
71 275 
71 277 
71 327 
71 354 
71 363 
71 408 
71 435 
71 436 
71 439 
71 450 
72 239 
72 247 
72 249 
72 278 
72 292 
72 303 
72 326 
72 334 
72 355 
72 359 
72 362 
72 365 
72 380 
72 386 
72 394 
73 232 
73 280 
73 325 
73 343 
73 367 
73 369 
73 388 
73 390 
73 392 
73 405 
73 419 
73 423 
73 425 
73 426 
73 448 
74 291 
74 298 
74 307 
74 309 
74 317 
74 333 
74 391 
74 397 
74 412 
74 414 
74 417 
74 424 
74 428 
74 433 
74 443 
75 234 
75 237 
75 257 
75 284 
75 314 
75 322 
75 329 
75 336 
75 378 
75 384 
75 393 
75 406 
75 409 
75 413 
75 432 
76 226 
76 260 
76 267 
76 268 
76 288 
76 310 
76 316 
76 330 
76 331 
76 332 
76 344 
76 345 
76 370 
76 371 
76 446 
77 245 
77 247 
77 249 
77 254 
77 300 
77 303 
77 308 
77 320 
77 373 
77 386 
77 396 
77 402 
77 410 
77 418 
77 434 
78 229 
78 233 
78 252 
78 258 
78 259 
78 262 
78 266 
78 270 
78 275 
78 287 
78 354 
78 358 
78 383 
78 415 
78 416 
79 248 
79 254 
79 292 
79 300 
79 315 
79 320 
79 326 
79 355 
79 362 
79 365 
79 386 
79 396 
79 410 
79 434 
79 438 
80 244 
80 246 
80 255 
80 272 
80 293 
80 297 
80 313 
80 338 
80 352 
80 356 
80 374 
80 387 
80 437 
80 444 
80 447 
81 228 
81 230 
81 231 
81 236 
81 267 
81 268 
81 288 
81 310 
81 316 
81 330 
81 331 
81 344 
81 345 
81 430 
81 449 
82 239 
82 248 
82 264 
82 278 
82 292 
82 315 
82 326 
82 334 
82 355 
82 359 
82 362 
82 365 
82 380 
82 394 
82 438 
83 232 
83 250 
83 263 
83 265 
83 280 
83 289 
83 311 
83 325 
83 342 
83 347 
83 367 
83 369 
83 392 
83 398 
83 405 
84 285 
84 301 
84 304 
84 307 
84 317 
84 333 
84 346 
84 364 
84 412 
84 414 
84 417 
84 427 
84 429 
84 441 
84 443 
85 234 
85 237 
85 257 
85 284 
85 314 
85 322 
85 329 
85 336 
85 378 
85 384 
85 393 
85 406 
85 409 
85 413 
85 432 
86 234 
86 237 
86 257 
86 284 
86 314 
86 322 
86 329 
86 336 
86 378 
86 384 
86 393 
86 406 
86 409 
86 413 
86 432 
87 229 
87 233 
87 252 
87 259 
87 266 
87 269 
87 270 
87 274 
87 275 
87 277 
87 327 
87 358 
87 383 
87 416 
87 439 
88 229 
88 233 
88 235 
88 258 
88 259 
88 266 
88 269 
88 287 
88 335 
88 358 
88 415 
88 416 
88 435 
88 436 
88 439 
89 227 
89 244 
89 261 
89 272 
89 279 
89 282 
89 302 
89 313 
89 349 
89 352 
89 381 
89 387 
89 411 
89 440 
89 447 
90 239 
90 245 
90 248 
90 249 
90 264 
90 292 
90 300 
90 308 
90 315 
90 320 
90 365 
90 373 
90 396 
90 410 
90 434 
91 234 
91 237 
91 257 
91 284 
91 314 
91 322 
91 329 
91 336 
91 378 
91 384 
91 393 
91 406 
91 409 
91 413 
91 432 
92 227 
92 244 
92 246 
92 272 
92 279 
92 282 
92 297 
92 338 
92 374 
92 387 
92 400 
92 421 
92 440 
92 444 
92 445 
93 239 
93 245 
93 247 
93 249 
93 264 
93 278 
93 303 
93 308 
93 334 
93 359 
93 373 
93 380 
93 394 
93 402 
93 418 
94 235 
94 252 
94 256 
94 258 
94 262 
94 266 
94 269 
94 273 
94 287 
94 335 
94 358 
94 366 
94 383 
94 415 
94 416 
95 228 
95 231 
95 267 
95 295 
95 321 
95 323 
95 330 
95 332 
95 344 
95 360 
95 399 
95 430 
95 442 
95 446 
95 449 
96 240 
96 242 
96 306 
96 328 
96 337 
96 339 
96 348 
96 350 
96 351 
96 353 
96 357 
96 368 
96 372 
96 377 
96 420 
97 226 
97 228 
97 260 
97 267 
97 268 
97 310 
97 316 
97 321 
97 332 
97 360 
97 376 
97 399 
97 401 
97 446 
97 449 
98 240 
98 242 
98 271 
98 281 
98 290 
98 294 
98 339 
98 341 
98 351 
98 353 
98 361 
98 368 
98 377 
98 385 
98 395 
99 226 
99 231 
99 236 
99 295 
99 321 
99 323 
99 330 
99 344 
99 360 
99 371 
99 375 
99 399 
99 442 
99 446 
99 449 
100 234 
100 237 
100 257 
100 284 
100 314 
100 322 
100 329 
100 336 
100 378 
100 384 
100 393 
100 406 
100 409 
100 413 
100 432 
101 233 
101 235 
101 252 
101 259 
101 262 
101 269 
101 270 
101 273 
101 277 
101 327 
101 358 
101 363 
101 383 
101 415 
101 416 
102 251 
102 286 
102 291 
102 301 
102 305 
102 309 
102 333 
102 364 
102 382 
102 391 
102 397 
102 404 
102 414 
102 433 
102 441 
103 227 
103 246 
103 261 
103 272 
103 279 
103 282 
103 297 
103 313 
103 318 
103 349 
103 352 
103 374 
103 387 
103 440 
103 447 
104 245 
104 247 
104 249 
104 254 
104 292 
104 300 
104 303 
104 308 
104 326 
104 334 
104 380 
104 386 
104 394 
104 396 
104 402 
105 247 
105 249 
105 254 
105 292 
105 300 
105 303 
105 308 
105 326 
105 334 
105 355 
105 365 
105 386 
105 394 
105 396 
105 434 
106 239 
106 245 
106 292 
106 300 
106 303 
106 315 
106 362 
106 365 
106 373 
106 380 
106 386 
106 394 
106 396 
106 410 
106 438 
107 228 
107 230 
107 260 
107 267 
107 268 
107 288 
107 310 
107 316 
107 331 
107 332 
107 345 
107 370 
107 376 
107 401 
107 430 
108 238 
108 251 
108 285 
108 298 
108 305 
108 317 
108 340 
108 346 
108 364 
108 397 
108 404 
108 417 
108 424 
108 427 
108 433 
109 253 
109 271 
109 276 
109 281 
109 283 
109 296 
109 299 
109 324 
109 328 
109 337 
109 348 
109 353 
109 372 
109 385 
109 395 
110 238 
110 251 
110 286 
110 291 
110 298 
110 305 
110 309 
110 340 
110 382 
110 391 
110 397 
110 404 
110 424 
110 428 
110 433 
111 239 
111 247 
111 249 
111 264 
111 300 
111 303 
111 320 
111 334 
111 355 
111 362 
111 365 
111 373 
111 396 
111 418 
111 434 
112 250 
112 280 
112 342 
112 343 
112 367 
112 369 
112 379 
112 390 
112 403 
112 422 
112 423 
112 425 
112 426 
112 431 
112 448 
113 232 
113 243 
113 263 
113 265 
113 289 
113 319 
113 325 
113 342 
113 347 
113 369 
113 392 
113 405 
113 419 
113 426 
113 448 
114 229 
114 233 
114 258 
114 259 
114 262 
114 269 
114 270 
114 274 
114 275 
114 327 
114 358 
114 363 
114 435 
114 436 
114 450 
115 236 
115 260 
115 268 
115 316 
115 321 
115 323 
115 330 
115 331 
115 370 
115 371 
115 375 
115 376 
115 399 
115 430 
115 446 
116 240 
116 253 
116 276 
116 283 
116 296 
116 306 
116 337 
116 339 
116 341 
116 348 
116 350 
116 353 
116 357 
116 372 
116 385 
117 241 
117 244 
117 255 
117 261 
117 282 
117 293 
117 302 
117 338 
117 356 
117 381 
117 400 
117 407 
117 411 
117 421 
117 445 
118 229 
118 233 
118 235 
118 252 
118 258 
118 262 
118 269 
118 270 
118 274 
118 327 
118 363 
118 366 
118 408 
118 416 
118 436 
119 250 
119 280 
119 311 
119 312 
119 343 
119 367 
119 379 
119 388 
119 390 
119 398 
119 403 
119 422 
119 423 
119 425 
119 431 
120 235 
120 256 
120 258 
120 269 
120 270 
120 273 
120 287 
120 358 
120 363 
120 366 
120 415 
120 435 
120 436 
120 439 
120 450 
121 226 
121 228 
121 260 
121 288 
121 295 
121 310 
121 332 
121 344 
121 345 
121 360 
121 370 
121 375 
121 401 
121 442 
121 446 
122 229 
122 233 
122 235 
122 252 
122 262 
122 277 
122 287 
122 335 
122 354 
122 363 
122 366 
122 383 
122 408 
122 415 
122 416 
123 240 
123 253 
123 271 
123 276 
123 283 
123 296 
123 299 
123 328 
123 337 
123 348 
123 350 
123 353 
123 372 
123 385 
123 395 
124 241 
124 255 
124 261 
124 293 
124 302 
124 313 
124 318 
124 349 
124 352 
124 356 
124 381 
124 407 
124 411 
124 437 
124 447 
125 226 
125 228 
125 230 
125 231 
125 267 
125 288 
125 295 
125 310 
125 332 
125 344 
125 345 
125 360 
125 401 
125 442 
125 449 
126 243 
126 263 
126 342 
126 347 
126 367 
126 369 
126 379 
126 390 
126 398 
126 403 
126 405 
126 419 
126 422 
126 423 
126 448 
127 235 
127 256 
127 269 
127 270 
127 273 
127 274 
127 277 
127 327 
127 363 
127 366 
127 408 
127 416 
127 435 
127 436 
127 439 
128 239 
128 248 
128 264 
128 278 
128 315 
128 320 
128 355 
128 359 
128 362 
128 365 
128 373 
128 410 
128 418 
128 434 
128 438 
129 247 
129 248 
129 249 
129 254 
129 264 
129 278 
129 308 
129 320 
129 326 
129 334 
129 355 
129 359 
129 402 
129 418 
129 434 
130 276 
130 281 
130 283 
130 290 
130 294 
130 299 
130 306 
130 324 
130 337 
130 341 
130 351 
130 353 
130 357 
130 377 
130 385 
131 240 
131 242 
131 276 
131 281 
131 290 
131 294 
131 296 
131 299 
131 306 
131 341 
131 351 
131 353 
131 361 
131 395 
131 420 
132 227 
132 241 
132 244 
132 261 
132 293 
132 302 
132 338 
132 352 
132 381 
132 387 
132 411 
132 421 
132 437 
132 440 
132 447 
133 234 
133 237 
133 257 
133 284 
133 314 
133 322 
133 329 
133 336 
133 378 
133 384 
133 393 
133 406 
133 409 
133 413 
133 432 
134 227 
134 241 
134 244 
134 246 
134 255 
134 279 
134 302 
134 313 
134 349 
134 352 
134 381 
134 387 
134 437 
134 444 
134 447 
135 243 
135 263 
135 265 
135 289 
135 311 
135 312 
135 325 
135 347 
135 367 
135 388 
135 392 
135 398 
135 405 
135 419 
135 422 
136 240 
136 242 
136 253 
136 276 
136 296 
136 299 
136 306 
136 337 
136 341 
136 348 
136 350 
136 372 
136 389 
136 395 
136 420 
137 251 
137 291 
137 304 
137 317 
137 333 
137 340 
137 346 
137 364 
137 391 
137 397 
137 412 
137 417 
137 424 
137 441 
137 443 
138 242 
138 253 
138 271 
138 294 
138 299 
138 324 
138 328 
138 350 
138 353 
138 361 
138 368 
138 372 
138 377 
138 385 
138 395 
139 228 
139 231 
139 236 
139 267 
139 316 
139 323 
139 345 
139 360 
139 376 
139 399 
139 401 
139 430 
139 442 
139 446 
139 449 
140 240 
140 242 
140 253 
140 271 
140 276 
140 281 
140 294 
140 296 
140 299 
140 341 
140 361 
140 372 
140 385 
140 389 
140 395 
141 228 
141 230 
141 231 
141 236 
141 295 
141 321 
141 323 
141 360 
141 375 
141 376 
141 399 
141 401 
141 430 
141 442 
141 449 
142 227 
142 244 
142 255 
142 272 
142 279 
142 297 
142 302 
142 338 
142 352 
142 407 
142 411 
142 421 
142 437 
142 444 
142 447 
143 232 
143 243 
143 263 
143 289 
143 319 
143 325 
143 342 
143 369 
143 390 
143 392 
143 398 
143 419 
143 425 
143 431 
143 448 
144 251 
144 286 
144 291 
144 298 
144 301 
144 305 
144 317 
144 333 
144 340 
144 346 
144 391 
144 428 
144 429 
144 433 
144 443 
145 234 
145 237 
145 257 
145 284 
145 314 
145 322 
145 329 
145 336 
145 378 
145 384 
145 393 
145 406 
145 409 
145 413 
145 432 
146 243 
146 311 
146 312 
146 342 
146 343 
146 347 
146 367 
146 379 
146 390 
146 403 
146 419 
146 422 
146 423 
146 426 
146 431 
147 238 
147 251 
147 285 
147 286 
147 298 
147 301 
147 305 
147 346 
147 382 
147 391 
147 397 
147 414 
147 428 
147 433 
147 443 
148 239 
148 245 
148 248 
148 249 
148 264 
148 278 
148 308 
148 315 
148 334 
148 365 
148 373 
148 380 
148 394 
148 396 
148 418 
149 232 
149 243 
149 263 
149 265 
149 289 
149 311 
149 312 
149 319 
149 325 
149 347 
149 388 
149 392 
149 398 
149 405 
149 419 
150 246 
150 255 
150 272 
150 279 
150 282 
150 297 
150 313 
150 318 
150 349 
150 356 
150 374 
150 400 
150 407 
150 444 
150 445 
151 243 
151 250 
151 263 
151 265 
151 289 
151 311 
151 312 
151 319 
151 342 
151 347 
151 379 
151 398 
151 403 
151 422 
151 431 
152 234 
152 237 
152 257 
152 284 
152 314 
152 322 
152 329 
152 336 
152 378 
152 384 
152 393 
152 406 
152 409 
152 413 
152 432 
153 271 
153 276 
153 281 
153 283 
153 290 
153 324 
153 328 
153 339 
153 348 
153 351 
153 361 
153 377 
153 389 
153 395 
153 420 
154 227 
154 246 
154 272 
154 279 
154 297 
154 313 
154 318 
154 349 
154 352 
154 374 
154 387 
154 437 
154 440 
154 444 
154 447 
155 240 
155 242 
155 276 
155 281 
155 290 
155 296 
155 306 
155 328 
155 337 
155 339 
155 348 
155 351 
155 353 
155 395 
155 420 
156 232 
156 250 
156 265 
156 280 
156 289 
156 311 
156 312 
156 319 
156 325 
156 343 
156 388 
156 392 
156 425 
156 426 
156 431 
157 232 
157 243 
157 263 
157 265 
157 312 
157 325 
157 367 
157 379 
157 388 
157 398 
157 419 
157 423 
157 425 
157 431 
157 448 
158 228 
158 260 
158 267 
158 288 
158 295 
158 323 
158 332 
158 344 
158 345 
158 360 
158 370 
158 401 
158 430 
158 442 
158 446 
159 227 
159 244 
159 255 
159 261 
159 272 
159 279 
159 282 
159 297 
159 302 
159 313 
159 349 
159 387 
159 400 
159 411 
159 445 
160 239 
160 249 
160 264 
160 300 
160 303 
160 308 
160 315 
160 326 
160 355 
160 365 
160 380 
160 394 
160 396 
160 410 
160 418 
161 239 
161 300 
161 303 
161 315 
161 320 
161 326 
161 334 
161 355 
161 359 
161 362 
161 365 
161 386 
161 418 
161 434 
161 438 
162 250 
162 265 
162 280 
162 311 
162 312 
162 343 
162 347 
162 367 
162 379 
162 388 
162 403 
162 405 
162 422 
162 423 
162 426 
163 229 
163 233 
163 252 
163 258 
163 259 
163 270 
163 274 
163 275 
163 287 
163 354 
163 363 
163 383 
163 408 
163 416 
163 439 
164 239 
164 245 
164 249 
164 278 
164 292 
164 303 
164 315 
164 320 
164 359 
164 362 
164 373 
164 386 
164 402 
164 410 
164 434 
165 226 
165 260 
165 295 
165 321 
165 323 
165 332 
165 360 
165 370 
165 371 
165 375 
165 376 
165 399 
165 401 
165 442 
165 446 
166 280 
166 312 
166 325 
166 343 
166 347 
166 367 
166 388 
166 390 
166 392 
166 398 
166 405 
166 419 
166 422 
166 423 
166 448 
167 242 
167 281 
167 290 
167 294 
167 306 
167 324 
167 339 
167 341 
167 351 
167 357 
167 361 
167 368 
167 377 
167 389 
167 420 
168 226 
168 230 
168 260 
168 268 
168 288 
168 295 
168 310 
168 321 
168 330 
168 331 
168 332 
168 344 
168 370 
168 371 
168 375 
169 243 
169 250 
169 263 
169 265 
169 311 
169 319 
169 325 
169 369 
169 379 
169 388 
169 405 
169 422 
169 423 
169 425 
169 426 
170 239 
170 249 
170 292 
170 300 
170 303 
170 315 
170 320 
170 355 
170 359 
170 362 
170 373 
170 386 
170 402 
170 410 
170 434 
171 247 
171 248 
171 254 
171 264 
171 300 
171 308 
171 326 
171 334 
171 355 
171 365 
171 380 
171 394 
171 396 
171 418 
171 438 
172 230 
172 260 
172 267 
172 288 
172 316 
172 321 
172 323 
172 330 
172 332 
172 344 
172 360 
172 371 
172 430 
172 442 
172 449 
173 245 
173 248 
173 254 
173 278 
173 292 
173 308 
173 315 
173 326 
173 359 
173 380 
173 386 
173 394 
173 402 
173 410 
173 438 
174 227 
174 241 
174 279 
174 282 
174 302 
174 318 
174 338 
174 352 
174 381 
174 400 
174 407 
174 411 
174 421 
174 440 
174 444 
175 252 
175 256 
175 262 
175 270 
175 273 
175 274 
175 275 
175 277 
175 327 
175 354 
175 363 
175 366 
175 383 
175 408 
175 450 
176 226 
176 228 
176 231 
176 236 
176 268 
176 295 
176 310 
176 331 
176 345 
176 370 
176 375 
176 376 
176 399 
176 401 
176 446 
177 229 
177 233 
177 235 
177 258 
177 262 
177 274 
177 327 
177 335 
177 354 
177 363 
177 366 
177 408 
177 416 
177 435 
177 436 
178 227 
178 246 
178 272 
178 282 
178 293 
178 302 
178 313 
178 318 
178 349 
178 352 
178 381 
178 400 
178 407 
178 440 
178 444 
179 226 
179 228 
179 230 
179 236 
179 260 
179 295 
179 323 
179 330 
179 345 
179 360 
179 370 
179 375 
179 376 
179 399 
179 442 
180 226 
180 230 
180 231 
180 236 
180 268 
180 310 
180 316 
180 321 
180 330 
180 331 
180 371 
180 375 
180 376 
180 399 
180 449 
181 247 
181 254 
181 292 
181 300 
181 303 
181 320 
181 326 
181 355 
181 359 
181 362 
181 386 
181 402 
181 410 
181 434 
181 438 
182 240 
182 253 
182 276 
182 281 
182 283 
182 294 
182 306 
182 328 
182 339 
182 357 
182 361 
182 372 
182 377 
182 389 
182 420 
183 229 
183 233 
183 252 
183 258 
183 259 
183 262 
183 266 
183 275 
183 287 
183 335 
183 354 
183 358 
183 383 
183 415 
183 450 
184 230 
184 231 
184 236 
184 288 
184 295 
184 323 
184 330 
184 331 
184 344 
184 345 
184 370 
184 371 
184 375 
184 430 
184 442 
185 253 
185 276 
185 283 
185 296 
185 299 
185 306 
185 324 
185 328 
185 337 
185 348 
185 350 
185 357 
185 372 
185 389 
185 420 
186 238 
186 285 
186 298 
186 304 
186 307 
186 317 
186 340 
186 346 
186 412 
186 417 
186 424 
186 427 
186 428 
186 429 
186 443 
187 233 
187 262 
187 273 
187 275 
187 277 
187 327 
187 335 
187 354 
187 358 
187 363 
187 366 
187 415 
187 435 
187 436 
187 450 
188 229 
188 256 
188 258 
188 266 
188 274 
188 275 
188 287 
188 335 
188 354 
188 366 
188 408 
188 435 
188 436 
188 439 
188 450 
189 245 
189 247 
189 248 
189 254 
189 278 
189 292 
189 320 
189 334 
189 359 
189 362 
189 373 
189 386 
189 402 
189 434 
189 438 
190 242 
190 253 
190 276 
190 290 
190 294 
190 296 
190 306 
190 324 
190 339 
190 341 
190 350 
190 361 
190 385 
190 389 
190 395 
191 285 
191 286 
191 298 
191 301 
191 304 
191 307 
191 317 
191 333 
191 346 
191 412 
191 414 
191 427 
191 428 
191 429 
191 443 
192 232 
192 263 
192 265 
192 280 
192 289 
192 311 
192 312 
192 342 
192 347 
192 367 
192 392 
192 403 
192 419 
192 426 
192 431 
193 240 
193 242 
193 290 
193 294 
193 306 
193 339 
193 341 
193 350 
193 351 
193 357 
193 361 
193 368 
193 377 
193 389 
193 420 
194 227 
194 241 
194 261 
194 279 
194 318 
194 338 
194 374 
194 381 
194 387 
194 411 
194 421 
194 437 
194 440 
194 445 
194 447 
195 251 
195 286 
195 291 
195 304 
195 309 
195 333 
195 340 
195 382 
195 404 
195 412 
195 424 
195 427 
195 428 
195 429 
195 441 
196 244 
196 246 
196 255 
196 261 
196 272 
196 279 
196 338 
196 356 
196 374 
196 381 
196 400 
196 407 
196 421 
196 437 
196 445 
197 226 
197 260 
197 267 
197 288 
197 316 
197 323 
197 331 
197 332 
197 345 
197 371 
197 376 
197 401 
197 442 
197 446 
197 449 
198 256 
198 259 
198 266 
198 273 
198 275 
198 277 
198 287 
198 335 
198 354 
198 358 
198 383 
198 415 
198 435 
198 439 
198 450 
199 230 
199 231 
199 267 
199 268 
199 295 
199 310 
199 321 
199 330 
199 332 
199 360 
199 370 
199 371 
199 376 
199 399 
199 430 
200 238 
200 251 
200 286 
200 291 
200 304 
200 309 
200 317 
200 340 
200 364 
200 391 
200 412 
200 424 
200 429 
200 441 
200 443 
201 250 
201 263 
201 265 
201 280 
201 319 
201 325 
201 342 
201 347 
201 369 
201 379 
201 405 
201 422 
201 423 
201 426 
201 448 
202 229 
202 235 
202 252 
202 256 
202 258 
202 259 
202 266 
202 269 
202 270 
202 274 
202 287 
202 383 
202 408 
202 416 
202 439 
203 240 
203 242 
203 290 
203 299 
203 306 
203 328 
203 348 
203 350 
203 351 
203 361 
203 368 
203 377 
203 385 
203 389 
203 395 
204 226 
204 228 
204 236 
204 260 
204 288 
204 316 
204 323 
204 331 
204 344 
204 345 
204 375 
204 401 
204 442 
204 446 
204 449 
205 234 
205 237 
205 257 
205 284 
205 314 
205 322 
205 329 
205 336 
205 378 
205 384 
205 393 
205 406 
205 409 
205 413 
205 432 
206 285 
206 298 
206 305 
206 307 
206 309 
206 333 
206 340 
206 364 
206 382 
206 397 
206 417 
206 424 
206 427 
206 433 
206 443 
207 250 
207 280 
207 289 
207 311 
207 319 
207 342 
207 343 
207 347 
207 369 
207 390 
207 392 
207 403 
207 405 
207 422 
207 426 
208 235 
208 252 
208 256 
208 266 
208 273 
208 277 
208 287 
208 335 
208 354 
208 366 
208 383 
208 408 
208 415 
208 416 
208 439 
209 229 
209 233 
209 235 
209 252 
209 258 
209 262 
209 266 
209 270 
209 327 
209 354 
209 366 
209 408 
209 415 
209 436 
209 450 
210 234 
210 237 
210 257 
210 284 
210 314 
210 322 
210 329 
210 336 
210 378 
210 384 
210 393 
210 406 
210 409 
210 413 
210 432 
211 252 
211 256 
211 259 
211 266 
211 269 
211 270 
211 273 
211 275 
211 277 
211 287 
211 358 
211 383 
211 415 
211 439 
211 450 
212 241 
212 244 
212 255 
212 293 
212 302 
212 338 
212 356 
212 381 
212 400 
212 407 
212 411 
212 421 
212 437 
212 444 
212 445 
213 243 
213 250 
213 319 
213 325 
213 343 
213 369 
213 379 
213 388 
213 390 
213 398 
213 405 
213 422 
213 423 
213 425 
213 448 
214 239 
214 245 
214 248 
214 264 
214 278 
214 315 
214 320 
214 359 
214 362 
214 373 
214 380 
214 402 
214 410 
214 418 
214 438 
215 232 
215 280 
215 289 
215 312 
215 342 
215 343 
215 347 
215 367 
215 390 
215 392 
215 398 
215 403 
215 419 
215 431 
215 448 
216 260 
216 295 
216 321 
216 323 
216 332 
216 360 
216 371 
216 375 
216 376 
216 399 
216 401 
216 430 
216 442 
216 446 
216 449 
217 239 
217 247 
217 248 
217 264 
217 278 
217 292 
217 308 
217 355 
217 365 
217 373 
217 380 
217 394 
217 396 
217 410 
217 438 
218 230 
218 231 
218 236 
218 267 
218 268 
218 316 
218 321 
218 323 
218 330 
218 331 
218 371 
218 376 
218 399 
218 430 
218 449 
219 226 
219 230 
219 236 
219 260 
219 316 
219 321 
219 323 
219 331 
219 344 
219 371 
219 375 
219 399 
219 401 
219 442 
219 449 
220 227 
220 241 
220 282 
220 293 
220 297 
220 302 
220 313 
220 318 
220 349 
220 352 
220 387 
220 411 
220 440 
220 444 
220 447 
221 245 
221 249 
221 254 
221 300 
221 303 
221 315 
221 320 
221 326 
221 334 
221 359 
221 362 
221 386 
221 402 
221 418 
221 434 
222 253 
222 271 
222 283 
222 324 
222 328 
222 337 
222 339 
222 348 
222 350 
222 357 
222 368 
222 372 
222 377 
222 385 
222 389 
223 238 
223 251 
223 286 
223 291 
223 301 
223 304 
223 317 
223 346 
223 391 
223 404 
223 412 
223 414 
223 428 
223 429 
223 441 
224 238 
224 251 
224 286 
224 291 
224 304 
224 305 
224 309 
224 382 
224 397 
224 414 
224 424 
224 427 
224 428 
224 441 
224 443 
225 244 
225 246 
225 255 
225 261 
225 272 
225 293 
225 297 
225 313 
225 349 
225 356 
225 374 
225 387 
225 437 
225 445 
225 447 
